qbf_easy_train/easy_4326_SAT.qdimacs
p cnf 45 133
a 24 2 4 0
e 1 3 5 6 7 8 9 10 11 12 13 14 15 16 17 18 19 20 21 22 23 25 26 27 28 29 30 31 32 33 34 35 36 37 38 39 40 41 42 43 44 45 0
3 -2 0
3 2 0
-4 -1 0
-4 3 0
1 -3 4 0
-6 3 0
-6 -5 0
-3 5 6 0
7 -4 0
7 6 0
4 -6 -7 0
9 -8 0
9 -8 0
8 -9 0
-10 -9 -11 0
10 9 -11 0
-10 9 11 0
10 -9 11 0
12 -10 0
12 11 0
10 -11 -12 0
12 -11 -13 0
-12 11 -13 0
12 11 13 0
-12 -11 13 0
14 10 0
14 12 0
-10 -12 -14 0
-15 13 0
-15 14 0
-13 -14 15 0
16 -12 0
16 -15 0
12 15 -16 0
17 9 0
17 16 0
-9 -16 -17 0
19 12 0
19 3 0
-12 -3 -19 0
20 -11 0
20 -19 0
11 19 -20 0
-21 -18 0
-21 20 0
18 -20 21 0
17 21 -22 0
-17 -21 -22 0
17 -21 22 0
-17 21 22 0
23 7 0
23 -22 0
-7 22 -23 0
-25 24 0
-25 5 0
-24 -5 25 0
-24 -25 -26 0
24 25 -26 0
-24 25 26 0
24 -25 26 0
27 4 0
27 -12 0
-4 12 -27 0
-16 28 -29 0
16 -28 -29 0
-16 -28 29 0
16 28 29 0
-30 -27 0
-30 29 0
27 -29 30 0
-31 -10 0
-31 -24 0
10 24 31 0
32 20 0
32 -31 0
-20 31 -32 0
24 33 0
-24 33 0
-32 -33 -34 0
32 33 -34 0
-32 33 34 0
32 -33 34 0
35 4 0
35 -5 0
-4 5 -35 0
-35 -18 -36 0
35 18 -36 0
-35 18 36 0
35 -18 36 0
-34 -36 -37 0
34 36 -37 0
-34 36 37 0
34 -36 37 0
18 9 -38 0
-18 -9 -38 0
18 -9 38 0
-18 9 38 0
-38 31 -39 0
38 -31 -39 0
-38 -31 39 0
38 31 39 0
-40 10 0
-40 13 0
-10 -13 40 0
-41 39 0
-41 -40 0
-39 40 41 0
42 -37 0
42 41 0
37 -41 -42 0
-43 -30 0
-43 -42 0
30 42 43 0
-26 -43 -44 0
26 43 -44 0
-26 43 44 0
26 -43 44 0
45 -23 0
45 -44 0
23 44 -45 0
-15 -18 33 -35 27 -34 21 0
1 9 16 3 10 8 -41 0
14 21 10 -43 17 0
41 -32 30 17 0
-32 -14 -37 3 0
22 -35 -7 -32 39 -21 0
29 18 38 -39 -27 0
15 -23 42 -17 -27 44 0
31 30 -29 15 6 0
30 -20 -25 5 28 -37 0
13 38 32 10 5 12 31 0
17 24 -6 28 -41 26 9 -20 0
45 0
