sat_easy_train/easy_4326_SAT.dimacs
p cnf 146 500
-4 -2 0
-4 -3 0
2 3 4 0
6 -4 0
6 -5 0
4 5 -6 0
7 1 0
7 6 0
-1 -6 -7 0
-9 -10 -11 0
9 10 -11 0
-9 10 11 0
9 -10 11 0
12 8 0
12 -11 0
-8 11 -12 0
-14 13 0
-14 1 0
-13 -1 14 0
15 12 0
15 -14 0
-12 14 -15 0
16 15 0
16 -9 0
-15 9 -16 0
-17 7 0
-17 -16 0
-7 16 17 0
18 -19 -20 0
-18 19 -20 0
18 19 20 0
-18 -19 20 0
-9 -6 -21 0
9 6 -21 0
-9 6 21 0
9 -6 21 0
-22 -16 0
-22 21 0
16 -21 22 0
-18 -20 -23 0
18 20 -23 0
-18 20 23 0
18 -20 23 0
24 -22 0
24 -23 0
22 23 -24 0
-25 20 0
-25 24 0
-20 -24 25 0
27 -13 0
27 5 0
13 -5 -27 0
18 27 -28 0
-18 -27 -28 0
18 -27 28 0
-18 27 28 0
-29 21 0
-29 -28 0
-21 28 29 0
-30 1 0
-30 -29 0
-1 29 30 0
-31 -26 0
-31 30 0
26 -30 31 0
-25 31 -32 0
25 -31 -32 0
-25 -31 32 0
25 31 32 0
-34 6 0
-34 -33 0
-6 33 34 0
35 5 0
35 29 0
-5 -29 -35 0
34 35 -36 0
-34 -35 -36 0
34 -35 36 0
-34 35 36 0
37 5 0
37 2 0
-5 -2 -37 0
36 -37 -38 0
-36 37 -38 0
36 37 38 0
-36 -37 38 0
-32 38 -39 0
32 -38 -39 0
-32 -38 39 0
32 38 39 0
-17 -39 -40 0
17 39 -40 0
-17 39 40 0
17 -39 40 0
-41 33 0
-41 -34 0
-33 34 41 0
42 -41 0
42 -19 0
41 19 -42 0
-2 42 -43 0
2 -42 -43 0
-2 -42 43 0
2 42 43 0
44 27 0
44 -3 0
-27 3 -44 0
44 36 -45 0
-44 -36 -45 0
44 -36 45 0
-44 36 45 0
-37 -45 -46 0
37 45 -46 0
-37 45 46 0
37 -45 46 0
47 43 0
47 46 0
-43 -46 -47 0
-13 -8 -48 0
13 8 -48 0
-13 8 48 0
13 -8 48 0
50 -20 0
50 49 0
20 -49 -50 0
4 50 -51 0
-4 -50 -51 0
4 -50 51 0
-4 50 51 0
-48 51 -52 0
48 -51 -52 0
-48 -51 52 0
48 51 52 0
33 -8 -53 0
-33 8 -53 0
33 8 53 0
-33 -8 53 0
13 -53 -54 0
-13 53 -54 0
13 53 54 0
-13 -53 54 0
55 52 0
55 -54 0
-52 54 -55 0
56 -47 0
56 55 0
47 -55 -56 0
-57 20 0
-57 21 0
-20 -21 57 0
58 57 0
58 29 0
-57 -29 -58 0
-7 -42 -59 0
7 42 -59 0
-7 42 59 0
7 -42 59 0
-8 -3 -60 0
8 3 -60 0
-8 3 60 0
8 -3 60 0
61 -60 0
61 41 0
60 -41 -61 0
61 -1 -62 0
-61 1 -62 0
61 1 62 0
-61 -1 62 0
63 -59 0
63 -62 0
59 62 -63 0
64 -58 0
64 63 0
58 -63 -64 0
65 -61 0
65 -10 0
61 10 -65 0
-66 64 0
-66 -65 0
-64 65 66 0
56 -66 -67 0
-56 66 -67 0
56 66 67 0
-56 -66 67 0
-68 -36 0
-68 34 0
36 -34 68 0
-69 -19 0
-69 41 0
19 -41 69 0
18 43 -70 0
-18 -43 -70 0
18 -43 70 0
-18 43 70 0
-70 48 -71 0
70 -48 -71 0
-70 -48 71 0
70 48 71 0
72 -69 0
72 71 0
69 -71 -72 0
-68 72 -73 0
68 -72 -73 0
-68 -72 73 0
68 72 73 0
-31 35 -74 0
31 -35 -74 0
-31 -35 74 0
31 35 74 0
75 23 0
75 -53 0
-23 53 -75 0
75 -62 -76 0
-75 62 -76 0
75 62 76 0
-75 -62 76 0
74 76 -77 0
-74 -76 -77 0
74 -76 77 0
-74 76 77 0
-16 19 -78 0
16 -19 -78 0
-16 -19 78 0
16 19 78 0
77 78 -79 0
-77 -78 -79 0
77 -78 79 0
-77 78 79 0
-80 -35 0
-80 26 0
35 -26 80 0
-81 -61 0
-81 -23 0
61 23 81 0
82 60 0
82 35 0
-60 -35 -82 0
-81 -82 -83 0
81 82 -83 0
-81 82 83 0
81 -82 83 0
84 -80 0
84 -83 0
80 83 -84 0
-86 43 0
-86 -85 0
-43 85 86 0
2 43 -87 0
-2 -43 -87 0
2 -43 87 0
-2 43 87 0
-88 -87 0
-88 6 0
87 -6 88 0
-86 -88 -89 0
86 88 -89 0
-86 88 89 0
86 -88 89 0
-90 84 0
-90 -89 0
-84 89 90 0
-91 -29 0
-91 29 0
-92 -91 0
-92 7 0
91 -7 92 0
-21 -26 -93 0
21 26 -93 0
-21 26 93 0
21 -26 93 0
94 -70 0
94 57 0
70 -57 -94 0
93 94 -95 0
-93 -94 -95 0
93 -94 95 0
-93 94 95 0
96 -16 0
96 18 0
16 -18 -96 0
-97 35 0
-97 -96 0
-35 96 97 0
98 97 0
98 -20 0
-97 20 -98 0
99 95 0
99 98 0
-95 -98 -99 0
100 -92 0
100 -99 0
92 99 -100 0
101 -6 0
101 -24 0
6 24 -101 0
102 101 0
102 24 0
-101 -24 -102 0
102 -31 -103 0
-102 31 -103 0
102 31 103 0
-102 -31 103 0
104 -103 0
104 16 0
103 -16 -104 0
-105 -29 0
-105 10 0
29 -10 105 0
106 104 0
106 105 0
-104 -105 -106 0
107 -11 0
107 29 0
11 -29 -107 0
-108 -1 0
-108 -107 0
1 107 108 0
9 -108 -109 0
-9 108 -109 0
9 108 109 0
-9 -108 109 0
-110 15 0
-110 -109 0
-15 109 110 0
-111 27 0
-111 -110 0
-27 110 111 0
-106 111 -112 0
106 -111 -112 0
-106 -111 112 0
106 111 112 0
113 100 0
113 112 0
-100 -112 -113 0
90 -113 -114 0
-90 113 -114 0
90 113 114 0
-90 -113 114 0
-115 79 0
-115 114 0
-79 -114 115 0
49 -5 -116 0
-49 5 -116 0
49 5 116 0
-49 -5 116 0
117 3 0
117 51 0
-3 -51 -117 0
118 -85 0
118 -4 0
85 4 -118 0
-119 -117 0
-119 -118 0
117 118 119 0
-120 85 0
-120 1 0
-85 -1 120 0
121 -120 0
121 -31 0
120 31 -121 0
-122 121 0
-122 91 0
-121 -91 122 0
-123 -13 0
-123 -60 0
13 60 123 0
124 123 0
124 27 0
-123 -27 -124 0
125 122 0
125 -124 0
-122 124 -125 0
-126 119 0
-126 -125 0
-119 125 126 0
127 -116 0
127 -126 0
116 126 -127 0
-19 -6 -128 0
19 6 -128 0
-19 6 128 0
19 -6 128 0
129 -127 0
129 128 0
127 -128 -129 0
6 -53 -130 0
-6 53 -130 0
6 53 130 0
-6 -53 130 0
-131 -60 0
-131 -130 0
60 130 131 0
-133 -15 0
-133 -132 0
15 132 133 0
-134 -131 0
-134 133 0
131 -133 134 0
135 -7 -136 0
-135 7 -136 0
135 7 136 0
-135 -7 136 0
-137 134 0
-137 136 0
-134 -136 137 0
3 -138 0
-3 -138 0
139 137 0
139 -138 0
-137 138 -139 0
-140 -48 0
-140 108 0
48 -108 140 0
141 -139 0
141 -140 0
139 140 -141 0
129 -141 -142 0
-129 141 -142 0
129 141 142 0
-129 -141 142 0
-143 -115 0
-143 142 0
115 -142 143 0
144 -73 0
144 -143 0
73 143 -144 0
-67 -144 -145 0
67 144 -145 0
-67 144 145 0
67 -144 145 0
-40 145 -146 0
40 -145 -146 0
-40 -145 146 0
40 145 146 0
102 137 60 -51 122 -18 0
-15 -7 -29 101 39 144 0
-72 105 0
-96 -115 130 -40 0
107 121 115 52 0
-23 -136 85 -65 -102 61 0
135 6 -34 -32 0
40 -26 -96 91 0
-18 -42 0
-75 -15 0
97 62 90 31 -39 -103 0
10 -21 -116 0
12 -137 -95 100 60 112 0
-13 142 -30 -128 0
108 45 146 82 -1 -135 0
-86 42 91 107 126 54 0
19 30 0
-83 14 8 9 -100 15 0
24 -6 0
51 -112 27 90 -10 0
-84 -135 23 -52 -86 -58 0
126 72 -9 0
39 -93 10 -35 -101 85 0
-45 11 -121 118 -33 0
1 76 59 18 -3 -19 0
-129 -66 -42 0
146 -18 0
115 -106 -88 -137 0
-41 -46 58 85 -52 119 0
126 -72 0
-144 -28 44 43 57 0
-48 88 -99 0
-32 56 0
19 104 133 131 -15 0
110 35 92 58 8 0
-76 -19 56 17 -28 0
-43 -64 -22 -133 -47 -61 0
140 64 1 99 73 0
74 -57 114 84 0
-110 -127 0
-49 112 -64 -103 -78 0
-145 -107 -126 78 0
-5 -51 -36 11 0
75 144 0
45 74 107 -13 56 -47 0
57 -124 -58 117 0
28 34 86 -18 0
35 98 0
-51 114 0
80 -111 55 14 85 63 0
84 -86 -124 0
-10 -4 -138 104 0
25 -10 0
-11 -111 0
-11 30 91 -13 50 0
-106 11 131 -17 -144 -21 0
-75 89 17 -133 -91 24 0
76 136 0
-83 26 0
146 -12 -114 0
-73 42 -130 -13 -26 134 0
74 -31 59 121 -120 0
-112 -113 -54 0
32 -29 6 0
-53 -110 106 0
146 0
